NAME : rl10
COMMENT : 10-city TSP (Reinelt)
TYPE : TSP
DIMENSION : 10
EDGE_WEIGHT_TYPE : EUC_2D
NODE_COORD_SECTION
1 1.81920e+04 8.95400e+03
2 1.81920e+04 9.85600e+03
3 1.81920e+04 1.13190e+04
4 1.82720e+04 8.62400e+03
5 1.84160e+04 7.34800e+03
6 1.84160e+04 8.29400e+03
7 1.20000e+03 7.37000e+03
8 1.20000e+03 8.18400e+03
9 1.20000e+03 1.09120e+04
10 1.20000e+03 1.14400e+04
EOF
